tests = {"gapa","gapb","gapc"};
datFiles = [{"benchmark_data/GapA/1032GapAS.txt_new","benchmark_data/GapA/1132GapAS.txt_new","benchmark_data/GapA/1232GapAS.txt_new","benchmark_data/GapA/1332GapAS.txt_new","benchmark_data/GapA/1432GapAS.txt_new","benchmark_data/GapA/1532GapAS.txt_new","benchmark_data/GapA/1632GapAS.txt_new","benchmark_data/GapA/1732GapAS.txt_new","benchmark_data/GapA/1832GapAS.txt_new","benchmark_data/GapA/1932GapAS.txt_new","benchmark_data/GapA/2032GapAS.txt_new","benchmark_data/GapA/2132GapAS.txt_new","benchmark_data/GapA/2232GapAS.txt_new","benchmark_data/GapA/2332GapAS.txt_new","benchmark_data/GapA/2432GapAS.txt_new","benchmark_data/GapA/2532GapAS.txt_new","benchmark_data/GapA/2632GapAS.txt_new","benchmark_data/GapA/2732GapAS.txt_new","benchmark_data/GapA/2832GapAS.txt_new","benchmark_data/GapA/2932GapAS.txt_new","benchmark_data/GapA/3032GapAS.txt_new","benchmark_data/GapA/3132GapAS.txt_new","benchmark_data/GapA/3232GapAS.txt_new","benchmark_data/GapA/332GapAS.txt_new","benchmark_data/GapA/432GapAS.txt_new","benchmark_data/GapA/532GapAS.txt_new","benchmark_data/GapA/632GapAS.txt_new","benchmark_data/GapA/732GapAS.txt_new","benchmark_data/GapA/832GapAS.txt_new","benchmark_data/GapA/932GapAS.txt_new"}, {"benchmark_data/GapB/1031GapBS.txt_new","benchmark_data/GapB/1131GapBS.txt_new","benchmark_data/GapB/1231GapBS.txt_new","benchmark_data/GapB/1331GapBS.txt_new","benchmark_data/GapB/1431GapBS.txt_new","benchmark_data/GapB/1531GapBS.txt_new","benchmark_data/GapB/1631GapBS.txt_new","benchmark_data/GapB/1731GapBS.txt_new","benchmark_data/GapB/1831GapBS.txt_new","benchmark_data/GapB/1931GapBS.txt_new","benchmark_data/GapB/2031GapBS.txt_new","benchmark_data/GapB/2131GapBS.txt_new","benchmark_data/GapB/2231GapBS.txt_new","benchmark_data/GapB/2331GapBS.txt_new","benchmark_data/GapB/2431GapBS.txt_new","benchmark_data/GapB/2531GapBS.txt_new","benchmark_data/GapB/2631GapBS.txt_new","benchmark_data/GapB/2731GapBS.txt_new","benchmark_data/GapB/2831GapBS.txt_new","benchmark_data/GapB/2931GapBS.txt_new","benchmark_data/GapB/3031GapBS.txt_new","benchmark_data/GapB/3131GapBS.txt_new","benchmark_data/GapB/3231GapBS.txt_new","benchmark_data/GapB/331GapBS.txt_new","benchmark_data/GapB/431GapBS.txt_new","benchmark_data/GapB/531GapBS.txt_new","benchmark_data/GapB/631GapBS.txt_new","benchmark_data/GapB/731GapBS.txt_new","benchmark_data/GapB/831GapBS.txt_new","benchmark_data/GapB/931GapBS.txt_new"}, {"benchmark_data/GapC/1033GapCS.txt_new","benchmark_data/GapC/1133GapCS.txt_new","benchmark_data/GapC/1233GapCS.txt_new","benchmark_data/GapC/1333GapCS.txt_new","benchmark_data/GapC/1433GapCS.txt_new","benchmark_data/GapC/1533GapCS.txt_new","benchmark_data/GapC/1633GapCS.txt_new","benchmark_data/GapC/1733GapCS.txt_new","benchmark_data/GapC/1833GapCS.txt_new","benchmark_data/GapC/1933GapCS.txt_new","benchmark_data/GapC/2033GapCS.txt_new","benchmark_data/GapC/2133GapCS.txt_new","benchmark_data/GapC/2233GapCS.txt_new","benchmark_data/GapC/2333GapCS.txt_new","benchmark_data/GapC/2433GapCS.txt_new","benchmark_data/GapC/2533GapCS.txt_new","benchmark_data/GapC/2633GapCS.txt_new","benchmark_data/GapC/2733GapCS.txt_new","benchmark_data/GapC/2833GapCS.txt_new","benchmark_data/GapC/2933GapCS.txt_new","benchmark_data/GapC/3033GapCS.txt_new","benchmark_data/GapC/3133GapCS.txt_new","benchmark_data/GapC/3233GapCS.txt_new","benchmark_data/GapC/333GapCS.txt_new","benchmark_data/GapC/433GapCS.txt_new","benchmark_data/GapC/533GapCS.txt_new","benchmark_data/GapC/633GapCS.txt_new","benchmark_data/GapC/733GapCS.txt_new","benchmark_data/GapC/833GapCS.txt_new","benchmark_data/GapC/933GapCS.txt_new"}];
